InboundTrucks  = 5;
OutboundTrucks = 4;
InboundDoors   = 2;
OutboundDoors  = 2;
ReleaseTimes    = [0, 1, 3, 2, 4,];
UnloadingTimes  = [6, 4, 5, 3, 7,];
LoadingTimes    = [5, 6, 4, 7,];
TransferMatrix  = [| 2, 1, 3, 2,
                   | 1, 3, 2, 1,
                   | 3, 2, 1, 3,
                   | 2, 1, 2, 1,
                   | 1, 2, 3, 2,
                   ];
